1796650
14 52 39276
52 22 46274
22 31 39447
31 28 65445
28 50 10810
50 36 24707
36 59 8563
59 16 10880
16 63 14689
63 48 23516
48 4 7248
4 20 4440
20 47 12843
47 13 9114
13 54 13536
54 1 18207
1 12 10465
12 32 4813
32 56 1427
56 40 3489
40 5 3130
5 60 7979
60 29 6419
29 25 9940
25 30 1249
30 41 5056
41 6 10602
6 23 16175
23 49 4353
49 19 8895
19 42 27461
42 61 10110
61 24 5437
24 3 17954
3 21 17216
21 38 42598
38 67 15200
67 64 14572
64 7 31078
7 34 42208
34 55 20835
55 46 30985
46 43 69394
43 11 99066
11 66 13370
66 26 57991
26 65 185977
65 45 16726
45 27 8214
27 17 1445
17 9 5356
9 58 1777
58 15 6904
15 8 6874
8 2 30462
2 68 59312
68 35 19070
35 51 8926
51 39 11004
39 62 8740
62 37 30446
37 53 6554
53 44 84806
44 10 75759
10 18 28652
18 57 27906
57 33 88918
33 14 124360
